11
0 73 48 93 50 85 82 37 86 16 15 
73 0 19 24 56 16 70 96 60 86 50 
63 60 0 50 35 76 69 8 76 69 58 
2 78 78 0 44 32 14 93 30 74 8 
8 93 5 34 0 26 66 25 33 18 6 
41 87 52 66 71 0 56 33 47 45 56 
97 38 76 41 47 51 0 85 93 9 23 
1 52 28 77 5 87 26 0 79 85 43 
78 96 93 51 21 96 26 35 0 94 34 
18 35 27 13 78 88 22 22 50 0 85 
64 21 66 100 45 54 32 90 76 70 0 
